Version identifier: 22.1.0.0 | 2022-03-09 | 1a383f8ce
CPXPARAM_Threads                                 1
CPXPARAM_MIP_Strategy_VariableSelect             3
CPXPARAM_TimeLimit                               600
Tried aggregator 1 time.
Reduced MIP has 1825 rows, 10500 columns, and 84869 nonzeros.
Reduced MIP has 9000 binaries, 1500 generals, 0 SOSs, and 0 indicators.
Presolve time = 0.04 sec. (33.34 ticks)
Found incumbent of value 12.172727 after 0.11 sec. (84.11 ticks)
Tried aggregator 1 time.
Detecting symmetries...
Reduced MIP has 1825 rows, 10500 columns, and 84869 nonzeros.
Reduced MIP has 9000 binaries, 1500 generals, 0 SOSs, and 0 indicators.
Presolve time = 0.05 sec. (40.74 ticks)
Probing time = 0.01 sec. (8.15 ticks)
Clique table members: 301.
MIP emphasis: balance optimality and feasibility.
MIP search method: dynamic search.
Parallel mode: none, using 1 thread.
Root relaxation solution time = 1.66 sec. (1802.42 ticks)

        Nodes                                         Cuts/
   Node  Left     Objective  IInf  Best Integer    Best Bound    ItCnt     Gap

*     0+    0                           12.1727        0.0000           100.00%
      0     0        0.0000  1673       12.1727        0.0000     5729  100.00%
      0     0        0.0000   833       12.1727   ZeroHalf: 5     8093  100.00%
      0     0        0.0000   720       12.1727   ZeroHalf: 5    12173  100.00%
*     0+    0                            0.9927        0.0000           100.00%
*     0+    0                            0.6992        0.0000           100.00%
*     0+    0                            0.4441        0.0000           100.00%
*     0+    0                            0.2734        0.0000           100.00%
*     0+    0                            0.2677        0.0000           100.00%
*     0+    0                            0.1857        0.0000           100.00%
*     0+    0                            0.1684        0.0000           100.00%
*     0+    0                            0.1615        0.0000           100.00%
*     0+    0                            0.1505        0.0000           100.00%
*     0+    0                            0.1454        0.0000           100.00%
      0     0  -1.00000e+75     0        0.1454        0.0000    12173  100.00%
Detecting symmetries...
      0     2        0.0000   435        0.1454        0.0000    12173  100.00%
Elapsed time = 42.78 sec. (46575.31 ticks, tree = 0.01 MB, solutions = 11)
      1     3        0.0000   983        0.1454        0.0000    24811  100.00%
      2     4        0.0000   792        0.1454        0.0000    31014  100.00%
      3     5        0.0000  1113        0.1454        0.0000    37551  100.00%
      4     6        0.0000   738        0.1454        0.0000    37702  100.00%
      5     7        0.0000   948        0.1454        0.0000    42544  100.00%
      6     8        0.0000   726        0.1454        0.0000    44111  100.00%
      7     9        0.0000  1303        0.1454        0.0000    56968  100.00%
      8    10        0.0000  1692        0.1454        0.0000    58674  100.00%
      9    11        0.0000  1425        0.1454        0.0000    58902  100.00%
     10    12        0.0000  1284        0.1454        0.0000    67513  100.00%
Elapsed time = 63.93 sec. (69488.40 ticks, tree = 0.12 MB, solutions = 11)
     11    13        0.0000  1428        0.1454        0.0000    76052  100.00%
     13    15        0.0000  1169        0.1454        0.0000    91797  100.00%
     15    17        0.0000  1285        0.1454        0.0000   103326  100.00%
     17    19        0.0000  1282        0.1454        0.0000   114899  100.00%
     19    21        0.0001  1214        0.1454        0.0000   124753  100.00%
     20    22        0.0001  1408        0.1454        0.0000   132084  100.00%
     21    23        0.0000  1034        0.1454        0.0000   137683  100.00%
     23    25        0.0001  1124        0.1454        0.0000   168442  100.00%
     24    26        0.0000   997        0.1454        0.0000   174875  100.00%
     25    27        0.0000  1148        0.1454        0.0000   179372  100.00%
Elapsed time = 102.05 sec. (109764.45 ticks, tree = 0.37 MB, solutions = 11)
     26    28        0.0002  1169        0.1454        0.0000   188463  100.00%
     27    29        0.0000  1151        0.1454        0.0000   194182  100.00%
     28    30       -0.0000  1044        0.1454        0.0000   201568  100.00%
     30    32        0.0000  1017        0.1454        0.0000   202003  100.00%
     31    33       -0.0000   888        0.1454        0.0000   206681  100.00%
     32    34        0.0000   858        0.1454        0.0000   211761  100.00%
     34    36        0.0000   817        0.1454        0.0000   212384  100.00%
     35    37        0.0001   965        0.1454        0.0000   220529  100.00%
     36    38       -0.0000   754        0.1454        0.0000   228263  100.00%
     37    39        0.0000  1275        0.1454        0.0000   246829  100.00%
Elapsed time = 132.65 sec. (141489.64 ticks, tree = 0.48 MB, solutions = 11)
     39    41       -0.0000   749        0.1454        0.0000   247397  100.00%
     41    43        0.0002  1003        0.1454        0.0000   254007  100.00%
     42    44        0.0000   988        0.1454        0.0000   261377  100.00%
     43    45        0.0000   792        0.1454        0.0000   264335  100.00%
     44    46        0.0000   601        0.1454        0.0000   271049  100.00%
     45    47        0.0000   533        0.1454        0.0000   275662  100.00%
     46    48        0.0000   583        0.1454        0.0000   280209  100.00%
     47    49        0.0000   456        0.1454        0.0000   284389  100.00%
     48    50        0.0000   548        0.1454        0.0000   287629  100.00%
     49    51        0.0001   995        0.1454        0.0000   296745  100.00%
Elapsed time = 151.83 sec. (161646.66 ticks, tree = 0.64 MB, solutions = 11)
     51    53        0.0000   727        0.1454        0.0000   302114  100.00%
     52    54        0.0000   521        0.1454        0.0000   306653  100.00%
     54    56       -0.0000   648        0.1454        0.0000   310035  100.00%
     56    58       -0.0000   786        0.1454        0.0000   314538  100.00%
     57    59        0.0001  1036        0.1454        0.0000   321906  100.00%
     58    60       -0.0000   684        0.1454        0.0000   325606  100.00%
     60    62        0.0000   688        0.1454        0.0000   325758  100.00%
     61    63        0.0000   509        0.1454        0.0000   329761  100.00%
     62    64        0.0000   494        0.1454        0.0000   332694  100.00%
     64    66        0.0002   948        0.1454        0.0000   339097  100.00%
Elapsed time = 170.52 sec. (181104.43 ticks, tree = 0.90 MB, solutions = 11)
     67    69        0.0000   525        0.1454        0.0000   340981  100.00%
     68    70        0.0002   822        0.1454        0.0000   347223  100.00%
     70    72        0.0000   620        0.1454        0.0000   354540  100.00%
     72    74        0.0000   523        0.1454        0.0000   357598  100.00%
     73    75        0.0000   754        0.1454        0.0000   362866  100.00%
     75    77        0.0002   747        0.1454        0.0000   368961  100.00%
     78    80        0.0003   705        0.1454        0.0000   374627  100.00%
     80    82        0.0001   926        0.1454        0.0000   380963  100.00%
     82    84        0.0000   531        0.1454        0.0000   383930  100.00%
     83    85        0.0002   633        0.1454        0.0000   388199  100.00%
Elapsed time = 192.60 sec. (203403.40 ticks, tree = 1.24 MB, solutions = 11)
     85    87       -0.0000   474        0.1454        0.0000   389785  100.00%
     86    88       -0.0000   516        0.1454        0.0000   392187  100.00%
     87    89        0.0001   600        0.1454        0.0000   396280  100.00%
     89    91        0.0000   516        0.1454        0.0000   397874  100.00%
     90    92       -0.0000   493        0.1454        0.0000   400546  100.00%
     92    94        0.0000   644        0.1454        0.0000   407716  100.00%
     93    95        0.0002   708        0.1454        0.0000   411829  100.00%
     94    96        0.0000  1065        0.1454        0.0000   416130  100.00%
     95    97        0.0002   822        0.1454        0.0000   419317  100.00%
     98   100        0.0000  1062        0.1454        0.0000   419466  100.00%
Elapsed time = 211.72 sec. (222720.91 ticks, tree = 1.49 MB, solutions = 11)
     99   101        0.0010   759        0.1454        0.0000   422595  100.00%
    100   102        0.0000  1061        0.1454        0.0000   422623  100.00%
    103   105        0.0000  1058        0.1454        0.0000   422675  100.00%
    105   107        0.0010   784        0.1454        0.0000   426461  100.00%
    107   109        0.0010   766        0.1454        0.0000   431540  100.00%
    109   111        0.0010   806        0.1454        0.0000   435843  100.00%
    110   112        0.0000  1081        0.1454        0.0000   435850  100.00%
    111   113        0.0010   748        0.1454        0.0000   440857  100.00%
    113   115        0.0010   876        0.1454        0.0000   443123  100.00%
    115   117        0.0010   832        0.1454        0.0000   446586  100.00%
Elapsed time = 229.26 sec. (240366.30 ticks, tree = 1.82 MB, solutions = 11)
    118   120        0.0000  1073        0.1454        0.0000   446607  100.00%
    120   122        0.0010   758        0.1454        0.0000   450512  100.00%
    123   125        0.0000  1074        0.1454        0.0000   450534  100.00%
    125   127        0.0010   777        0.1454        0.0000   454093  100.00%
    128   130        0.0010   793        0.1454        0.0000   457637  100.00%
    130   132        0.0000  1065        0.1454        0.0000   457770  100.00%
    131   133        0.0010   853        0.1454        0.0000   460421  100.00%
    133   135        0.0011   563        0.1454        0.0000   465503  100.00%
    136   138        0.0010   755        0.1454        0.0000   469125  100.00%
    138   140        0.0011   546        0.1454        0.0000   475897  100.00%
Elapsed time = 247.50 sec. (258655.93 ticks, tree = 2.23 MB, solutions = 11)
    141   143        0.0010   797        0.1454        0.0000   479458  100.00%
    143   145        0.0010   784        0.1454        0.0000   483066  100.00%
    145   147        0.0010   598        0.1454        0.0000   487859  100.00%
    147   149        0.0010   574        0.1454        0.0000   496801  100.00%
    149   151        0.0010   949        0.1454        0.0000   499754  100.00%
    150   152        0.0001  1011        0.1454        0.0000   499780  100.00%
    151   153        0.0011   734        0.1454        0.0000   504436  100.00%
    153   155        0.0011   666        0.1454        0.0000   509482  100.00%
    155   157        0.0011   531        0.1454        0.0000   518663  100.00%
    163   165        0.0001  1012        0.1454        0.0000   523092  100.00%
Elapsed time = 270.57 sec. (281883.00 ticks, tree = 2.67 MB, solutions = 11)
    172   174        0.0001   973        0.1454        0.0000   523748  100.00%
    180   182        0.0001   986        0.1454        0.0000   524970  100.00%
    188   190        0.0002  1009        0.1454        0.0000   527482  100.00%
    194   196        0.0012   870        0.1454        0.0000   536470  100.00%
    199   201        0.0020   806        0.1454        0.0000   543606  100.00%
    205   207        0.0019   810        0.1454        0.0000   552384  100.00%
    210   212        0.0002   921        0.1454        0.0000   560328  100.00%
    215   217        0.0002   815        0.1454        0.0000   568705  100.00%
    221   223        0.0002   723        0.1454        0.0000   576723  100.00%
    227   229        0.0012   591        0.1454        0.0000   586452  100.00%
Elapsed time = 312.38 sec. (324256.48 ticks, tree = 3.84 MB, solutions = 11)
    232   234        0.0029   662        0.1454        0.0000   596722  100.00%
    237   239        0.0003   723        0.1454        0.0000   605301  100.00%
    241   243        0.0018   713        0.1454        0.0000   614847  100.00%
    246   248        0.0029   647        0.1454        0.0000   622988  100.00%
    252   254        0.0049   685        0.1454        0.0000   630555  100.00%
    259   261        0.0004   682        0.1454        0.0000   638325  100.00%
    260   262        0.0018   668        0.1454        0.0000   640569  100.00%
    266   268        0.0004   710        0.1454        0.0000   648027  100.00%
    272   274        0.0038   644        0.1454        0.0000   655592  100.00%
    279   281        0.0004   696        0.1454        0.0000   666078  100.00%
Elapsed time = 358.39 sec. (370631.60 ticks, tree = 4.79 MB, solutions = 11)
    283   285        0.0008   685        0.1454        0.0000   672255  100.00%
    291   293        0.0004   733        0.1454        0.0000   676658  100.00%
    297   299        0.0004   756        0.1454        0.0000   684697  100.00%
    305   307        0.0013   705        0.1454        0.0000   692288  100.00%
    311   313        0.0021  1054        0.1454        0.0000   701374  100.00%
    318   320        0.0005   622        0.1454        0.0000   715534  100.00%
    321   323        0.0009   748        0.1454        0.0000   721758  100.00%
    326   328        0.0010   903        0.1454        0.0000   731655  100.00%
    330   332        0.0053   669        0.1454        0.0000   744435  100.00%
    336   338        0.0010   688        0.1454        0.0000   752010  100.00%
Elapsed time = 402.41 sec. (414720.74 ticks, tree = 5.80 MB, solutions = 11)
    340   342        0.0010   676        0.1454        0.0000   757762  100.00%
    348   350        0.0010   669        0.1454        0.0000   763746  100.00%
    353   355        0.0010   859        0.1454        0.0000   773659  100.00%
    358   360        0.0062   909        0.1454        0.0000   784047  100.00%
    363   365        0.0011   818        0.1454        0.0000   789003  100.00%
    369   371        0.0011   889        0.1454        0.0000   797062  100.00%
    375   377        0.0054   807        0.1454        0.0000   802993  100.00%
    382   384        0.0011   868        0.1454        0.0000   807927  100.00%
    389   391        0.0011   711        0.1454        0.0000   816405  100.00%
    394   396        0.0012   812        0.1454        0.0000   827564  100.00%
Elapsed time = 445.97 sec. (458011.44 ticks, tree = 6.85 MB, solutions = 11)
    399   401        0.0013   875        0.1454        0.0000   839006  100.00%
    404   406        0.0013   729        0.1454        0.0000   846965  100.00%
    409   411        0.0015   881        0.1454        0.0000   854071  100.00%
    414   416        0.0069   844        0.1454        0.0000   864319  100.00%
    418   420        0.0046   865        0.1454        0.0000   874586  100.00%
    421   423        0.0021   887        0.1454        0.0000   878785  100.00%
    424   426        0.0072   901        0.1454        0.0000   889763  100.00%
    429   431        0.0025   846        0.1454        0.0000   897913  100.00%
    433   435        0.0026   874        0.1454        0.0000   910678  100.00%
    436   438        0.0049   813        0.1454        0.0000   923040  100.00%
Elapsed time = 489.34 sec. (501750.33 ticks, tree = 7.63 MB, solutions = 11)
    439   441        0.0079   982        0.1454        0.0000   934485  100.00%
    444   446        0.0030   864        0.1454        0.0000   945374  100.00%
    449   451        0.0101   995        0.1454        0.0000   958320  100.00%
    453   455        0.0035   981        0.1454        0.0000   971265  100.00%
    456   458        0.0036   905        0.1454        0.0000   981362  100.00%
    462   464        0.0083   849        0.1454        0.0000   991979  100.00%
    466   468        0.0041  1098        0.1454        0.0000  1007365  100.00%
    470   472        0.0042  1123        0.1454        0.0000  1018152  100.00%
    473   475        0.0118   851        0.1454        0.0000  1031246  100.00%
    477   479        0.0090   994        0.1454        0.0000  1045995  100.00%
Elapsed time = 540.27 sec. (552896.75 ticks, tree = 8.37 MB, solutions = 11)
    481   483        0.0088  1040        0.1454        0.0000  1056597  100.00%
    486   488        0.0085   920        0.1454        0.0000  1068014  100.00%
    489   491        0.0087   986        0.1454        0.0000  1082336  100.00%
    493   495        0.0084   931        0.1454        0.0000  1091424  100.00%
    497   499        0.0056   703        0.1454        0.0000  1100340  100.00%
Starting limited solution polishing.
    504   506        0.0146   860        0.1454        0.0000  1109554  100.00%
    510   512        0.0057   613        0.1454        0.0000  1116352  100.00%
    517   519        0.0057   589        0.1454        0.0000  1122764  100.00%
    520   522        0.0099   640        0.1454        0.0000  1131968  100.00%
*   525+  525                            0.1279        0.0000           100.00%
    525   527        0.0000   518        0.1279        0.0000  1141666  100.00%
Elapsed time = 589.23 sec. (601406.98 ticks, tree = 9.28 MB, solutions = 12)
*   526+  526                            0.0917        0.0000           100.00%
*   526+  526                            0.0910        0.0000           100.00%
*   526+  526                            0.0740        0.0000           100.00%
    526   528       -0.0000   458        0.0740        0.0000  1143679  100.00%

Zero-half cuts applied:  9

Root node processing (before b&c):
  Real time             =   42.73 sec. (46526.13 ticks)
Sequential b&c:
  Real time             =  557.28 sec. (563851.92 ticks)
                          ------------
Total (root+branch&cut) =  600.01 sec. (610378.04 ticks)
Violation-free sequence bound:	144
Unscheduled:	156
Status:	Feasible
Time:	599.94
Sequence:
	20
	9
	14
	5
	18
	4
	19
	5
	12
	10
	20
	0
	18
	8
	14
	5
	19
	4
	18
	5
	17
	6
	14
	8
	5
	12
	11
	5
	12
	5
	10
	13
	5
	20
	8
	12
	7
	8
	12
	5
	10
	13
	5
	10
	12
	5
	9
	12
	1
	20
	8
	13
	5
	14
	5
	20
	3
	18
	5
	12
	8
	18
	0
	20
	8
	14
	5
	19
	2
	20
	5
	17
	6
	18
	2
	20
	5
	13
	10
	18
	1
	18
	9
	12
	5
	17
	5
	19
	2
	20
	5
	12
	6
	20
	2
	20
	5
	13
	8
	20
	1
	18
	9
	12
	5
	18
	1
	21
	8
	12
	5
	23
	0
	18
	5
	17
	6
	14
	8
	12
	5
	20
	3
	20
	5
	16
	5
	7
	16
	5
	18
	10
	15
	5
	16
	5
	14
	11
	18
	5
	12
	5
	9
	14
	20
	8
	12
	6
	14
	5
	10
	12
	5
	23
	0
	20
	8
	12
	5
	24
	1
	18
	5
	16
	7
	18
	2
	20
	5
	15
	5
	18
	2
	20
	7
	16
	5
	18
	4
	21
	5
	12
	8
	20
	0
	20
	8
	12
	5
	21
	4
	18
	5
	16
	7
	12
	10
	12
	5
	22
	1
	18
	8
	12
	7
	18
	4
	18
	5
	15
	8
	14
	5
	18
	16
	21
	5
	17
	5
	12
	9
	20
	5
	16
	7
	18
	5
	17
	5
	14
	9
	18
	12
	10
	14
	19
	5
	18
	17
	18
	7
	12
	8
	20
	12
	11
	5
	14
	8
	12
	7
	18
	8
	14
	5
	20
	3
	20
	5
	12
	10
	18
	0
	20
	5
	17
	5
	19
	1
	18
	2
	20
	6
	17
	5
	18
	4
	18
	6
	12
	5
	20
	4
	19
	5
	12
	10
	23
	0
	18
	5
	12
	10
	20
	0
	18
	8
	14
	5
	24
Violation-free sequence:
	20
	9
	14
	5
	18
	4
	19
	5
	12
	10
	20
	0
	18
	8
	14
	5
	19
	4
	18
	5
	17
	6
	14
	8
	5
	12
	11
	5
	12
	5
	10
	13
	5
	20
	8
	12
	7
	8
	12
	5
	10
	13
	5
	10
	12
	5
	9
	12
	1
	20
	8
	13
	5
	14
	5
	20
	3
	18
	5
	12
	8
	18
	0
	20
	8
	14
	5
	19
	2
	20
	5
	17
	6
	18
	2
	20
	5
	13
	10
	18
	1
	18
	9
	12
	5
	17
	5
	19
	2
	20
	5
	12
	6
	20
	2
	20
	5
	13
	8
	20
	1
	18
	9
	12
	5
	18
	1
	21
	8
	12
	5
	23
	0
	18
	5
	17
	6
	14
	8
	12
	5
	20
	3
	20
	5
	16
	5
	7
	16
	5
	18
	10
	15
	5
	16
	5
	14
	11
	18
	5
	12
	5
	9
	14
